<instance format="XCSP3" type="COP">
  <variables>
    <array id="x" size="[26]"> -1 1 </array>
    <array id="y" size="[25][25]"> -1 1 </array>
    <array id="c" size="[25]">
      <domain for="c[0]"> -25..25 </domain>
      <domain for="c[1]"> -24..24 </domain>
      <domain for="c[2]"> -23..23 </domain>
      <domain for="c[3]"> -22..22 </domain>
      <domain for="c[4]"> -21..21 </domain>
      <domain for="c[5]"> -20..20 </domain>
      <domain for="c[6]"> -19..19 </domain>
      <domain for="c[7]"> -18..18 </domain>
      <domain for="c[8]"> -17..17 </domain>
      <domain for="c[9]"> -16..16 </domain>
      <domain for="c[10]"> -15..15 </domain>
      <domain for="c[11]"> -14..14 </domain>
      <domain for="c[12]"> -13..13 </domain>
      <domain for="c[13]"> -12..12 </domain>
      <domain for="c[14]"> -11..11 </domain>
      <domain for="c[15]"> -10..10 </domain>
      <domain for="c[16]"> -9..9 </domain>
      <domain for="c[17]"> -8..8 </domain>
      <domain for="c[18]"> -7..7 </domain>
      <domain for="c[19]"> -6..6 </domain>
      <domain for="c[20]"> -5..5 </domain>
      <domain for="c[21]"> -4..4 </domain>
      <domain for="c[22]"> -3..3 </domain>
      <domain for="c[23]"> -2..2 </domain>
      <domain for="c[24]"> -1..1 </domain>
    </array>
    <array id="s" size="[25]">
      <domain for="s[6]"> 0 1 4 9 16 25 36 49 64 81 100 121 144 169 196 225 256 289 324 361 </domain>
      <domain for="s[7]"> 0 1 4 9 16 25 36 49 64 81 100 121 144 169 196 225 256 289 324 </domain>
      <domain for="s[8]"> 0 1 4 9 16 25 36 49 64 81 100 121 144 169 196 225 256 289 </domain>
      <domain for="s[9]"> 0 1 4 9 16 25 36 49 64 81 100 121 144 169 196 225 256 </domain>
      <domain for="s[10]"> 0 1 4 9 16 25 36 49 64 81 100 121 144 169 196 225 </domain>
      <domain for="s[11]"> 0 1 4 9 16 25 36 49 64 81 100 121 144 169 196 </domain>
      <domain for="s[12]"> 0 1 4 9 16 25 36 49 64 81 100 121 144 169 </domain>
      <domain for="s[13]"> 0 1 4 9 16 25 36 49 64 81 100 121 144 </domain>
      <domain for="s[14]"> 0 1 4 9 16 25 36 49 64 81 100 121 </domain>
      <domain for="s[15]"> 0 1 4 9 16 25 36 49 64 81 100 </domain>
      <domain for="s[16]"> 0 1 4 9 16 25 36 49 64 81 </domain>
      <domain for="s[17]"> 0 1 4 9 16 25 36 49 64 </domain>
      <domain for="s[18]"> 0 1 4 9 16 25 36 49 </domain>
      <domain for="s[19]"> 0 1 4 9 16 25 36 </domain>
      <domain for="s[20]"> 0 1 4 9 16 25 </domain>
      <domain for="s[21]"> 0 1 4 9 16 </domain>
      <domain for="s[22]"> 0 1 4 9 </domain>
      <domain for="s[23]"> 0 1 4 </domain>
      <domain for="s[24]"> 0 1 </domain>
      <domain for="s[0]"> 0 1 4 9 16 25 36 49 64 81 100 121 144 169 196 225 256 289 324 361 400 441 484 529 576 625 </domain>
      <domain for="s[1]"> 0 1 4 9 16 25 36 49 64 81 100 121 144 169 196 225 256 289 324 361 400 441 484 529 576 </domain>
      <domain for="s[2]"> 0 1 4 9 16 25 36 49 64 81 100 121 144 169 196 225 256 289 324 361 400 441 484 529 </domain>
      <domain for="s[3]"> 0 1 4 9 16 25 36 49 64 81 100 121 144 169 196 225 256 289 324 361 400 441 484 </domain>
      <domain for="s[4]"> 0 1 4 9 16 25 36 49 64 81 100 121 144 169 196 225 256 289 324 361 400 441 </domain>
      <domain for="s[5]"> 0 1 4 9 16 25 36 49 64 81 100 121 144 169 196 225 256 289 324 361 400 </domain>
    </array>
  </variables>
  <constraints>
    <group>
      <intension> eq(%0,mul(%1,%2)) </intension>
      <args> y[0][0] x[0] x[1] </args>
      <args> y[0][1] x[1] x[2] </args>
      <args> y[0][2] x[2] x[3] </args>
      <args> y[0][3] x[3] x[4] </args>
      <args> y[0][4] x[4] x[5] </args>
      <args> y[0][5] x[5] x[6] </args>
      <args> y[0][6] x[6] x[7] </args>
      <args> y[0][7] x[7] x[8] </args>
      <args> y[0][8] x[8] x[9] </args>
      <args> y[0][9] x[9] x[10] </args>
      <args> y[0][10] x[10] x[11] </args>
      <args> y[0][11] x[11] x[12] </args>
      <args> y[0][12] x[12] x[13] </args>
      <args> y[0][13] x[13] x[14] </args>
      <args> y[0][14] x[14] x[15] </args>
      <args> y[0][15] x[15] x[16] </args>
      <args> y[0][16] x[16] x[17] </args>
      <args> y[0][17] x[17] x[18] </args>
      <args> y[0][18] x[18] x[19] </args>
      <args> y[0][19] x[19] x[20] </args>
      <args> y[0][20] x[20] x[21] </args>
      <args> y[0][21] x[21] x[22] </args>
      <args> y[0][22] x[22] x[23] </args>
      <args> y[0][23] x[23] x[24] </args>
      <args> y[0][24] x[24] x[25] </args>
      <args> y[1][0] x[0] x[2] </args>
      <args> y[1][1] x[1] x[3] </args>
      <args> y[1][2] x[2] x[4] </args>
      <args> y[1][3] x[3] x[5] </args>
      <args> y[1][4] x[4] x[6] </args>
      <args> y[1][5] x[5] x[7] </args>
      <args> y[1][6] x[6] x[8] </args>
      <args> y[1][7] x[7] x[9] </args>
      <args> y[1][8] x[8] x[10] </args>
      <args> y[1][9] x[9] x[11] </args>
      <args> y[1][10] x[10] x[12] </args>
      <args> y[1][11] x[11] x[13] </args>
      <args> y[1][12] x[12] x[14] </args>
      <args> y[1][13] x[13] x[15] </args>
      <args> y[1][14] x[14] x[16] </args>
      <args> y[1][15] x[15] x[17] </args>
      <args> y[1][16] x[16] x[18] </args>
      <args> y[1][17] x[17] x[19] </args>
      <args> y[1][18] x[18] x[20] </args>
      <args> y[1][19] x[19] x[21] </args>
      <args> y[1][20] x[20] x[22] </args>
      <args> y[1][21] x[21] x[23] </args>
      <args> y[1][22] x[22] x[24] </args>
      <args> y[1][23] x[23] x[25] </args>
      <args> y[2][0] x[0] x[3] </args>
      <args> y[2][1] x[1] x[4] </args>
      <args> y[2][2] x[2] x[5] </args>
      <args> y[2][3] x[3] x[6] </args>
      <args> y[2][4] x[4] x[7] </args>
      <args> y[2][5] x[5] x[8] </args>
      <args> y[2][6] x[6] x[9] </args>
      <args> y[2][7] x[7] x[10] </args>
      <args> y[2][8] x[8] x[11] </args>
      <args> y[2][9] x[9] x[12] </args>
      <args> y[2][10] x[10] x[13] </args>
      <args> y[2][11] x[11] x[14] </args>
      <args> y[2][12] x[12] x[15] </args>
      <args> y[2][13] x[13] x[16] </args>
      <args> y[2][14] x[14] x[17] </args>
      <args> y[2][15] x[15] x[18] </args>
      <args> y[2][16] x[16] x[19] </args>
      <args> y[2][17] x[17] x[20] </args>
      <args> y[2][18] x[18] x[21] </args>
      <args> y[2][19] x[19] x[22] </args>
      <args> y[2][20] x[20] x[23] </args>
      <args> y[2][21] x[21] x[24] </args>
      <args> y[2][22] x[22] x[25] </args>
      <args> y[3][0] x[0] x[4] </args>
      <args> y[3][1] x[1] x[5] </args>
      <args> y[3][2] x[2] x[6] </args>
      <args> y[3][3] x[3] x[7] </args>
      <args> y[3][4] x[4] x[8] </args>
      <args> y[3][5] x[5] x[9] </args>
      <args> y[3][6] x[6] x[10] </args>
      <args> y[3][7] x[7] x[11] </args>
      <args> y[3][8] x[8] x[12] </args>
      <args> y[3][9] x[9] x[13] </args>
      <args> y[3][10] x[10] x[14] </args>
      <args> y[3][11] x[11] x[15] </args>
      <args> y[3][12] x[12] x[16] </args>
      <args> y[3][13] x[13] x[17] </args>
      <args> y[3][14] x[14] x[18] </args>
      <args> y[3][15] x[15] x[19] </args>
      <args> y[3][16] x[16] x[20] </args>
      <args> y[3][17] x[17] x[21] </args>
      <args> y[3][18] x[18] x[22] </args>
      <args> y[3][19] x[19] x[23] </args>
      <args> y[3][20] x[20] x[24] </args>
      <args> y[3][21] x[21] x[25] </args>
      <args> y[4][0] x[0] x[5] </args>
      <args> y[4][1] x[1] x[6] </args>
      <args> y[4][2] x[2] x[7] </args>
      <args> y[4][3] x[3] x[8] </args>
      <args> y[4][4] x[4] x[9] </args>
      <args> y[4][5] x[5] x[10] </args>
      <args> y[4][6] x[6] x[11] </args>
      <args> y[4][7] x[7] x[12] </args>
      <args> y[4][8] x[8] x[13] </args>
      <args> y[4][9] x[9] x[14] </args>
      <args> y[4][10] x[10] x[15] </args>
      <args> y[4][11] x[11] x[16] </args>
      <args> y[4][12] x[12] x[17] </args>
      <args> y[4][13] x[13] x[18] </args>
      <args> y[4][14] x[14] x[19] </args>
      <args> y[4][15] x[15] x[20] </args>
      <args> y[4][16] x[16] x[21] </args>
      <args> y[4][17] x[17] x[22] </args>
      <args> y[4][18] x[18] x[23] </args>
      <args> y[4][19] x[19] x[24] </args>
      <args> y[4][20] x[20] x[25] </args>
      <args> y[5][0] x[0] x[6] </args>
      <args> y[5][1] x[1] x[7] </args>
      <args> y[5][2] x[2] x[8] </args>
      <args> y[5][3] x[3] x[9] </args>
      <args> y[5][4] x[4] x[10] </args>
      <args> y[5][5] x[5] x[11] </args>
      <args> y[5][6] x[6] x[12] </args>
      <args> y[5][7] x[7] x[13] </args>
      <args> y[5][8] x[8] x[14] </args>
      <args> y[5][9] x[9] x[15] </args>
      <args> y[5][10] x[10] x[16] </args>
      <args> y[5][11] x[11] x[17] </args>
      <args> y[5][12] x[12] x[18] </args>
      <args> y[5][13] x[13] x[19] </args>
      <args> y[5][14] x[14] x[20] </args>
      <args> y[5][15] x[15] x[21] </args>
      <args> y[5][16] x[16] x[22] </args>
      <args> y[5][17] x[17] x[23] </args>
      <args> y[5][18] x[18] x[24] </args>
      <args> y[5][19] x[19] x[25] </args>
      <args> y[6][0] x[0] x[7] </args>
      <args> y[6][1] x[1] x[8] </args>
      <args> y[6][2] x[2] x[9] </args>
      <args> y[6][3] x[3] x[10] </args>
      <args> y[6][4] x[4] x[11] </args>
      <args> y[6][5] x[5] x[12] </args>
      <args> y[6][6] x[6] x[13] </args>
      <args> y[6][7] x[7] x[14] </args>
      <args> y[6][8] x[8] x[15] </args>
      <args> y[6][9] x[9] x[16] </args>
      <args> y[6][10] x[10] x[17] </args>
      <args> y[6][11] x[11] x[18] </args>
      <args> y[6][12] x[12] x[19] </args>
      <args> y[6][13] x[13] x[20] </args>
      <args> y[6][14] x[14] x[21] </args>
      <args> y[6][15] x[15] x[22] </args>
      <args> y[6][16] x[16] x[23] </args>
      <args> y[6][17] x[17] x[24] </args>
      <args> y[6][18] x[18] x[25] </args>
      <args> y[7][0] x[0] x[8] </args>
      <args> y[7][1] x[1] x[9] </args>
      <args> y[7][2] x[2] x[10] </args>
      <args> y[7][3] x[3] x[11] </args>
      <args> y[7][4] x[4] x[12] </args>
      <args> y[7][5] x[5] x[13] </args>
      <args> y[7][6] x[6] x[14] </args>
      <args> y[7][7] x[7] x[15] </args>
      <args> y[7][8] x[8] x[16] </args>
      <args> y[7][9] x[9] x[17] </args>
      <args> y[7][10] x[10] x[18] </args>
      <args> y[7][11] x[11] x[19] </args>
      <args> y[7][12] x[12] x[20] </args>
      <args> y[7][13] x[13] x[21] </args>
      <args> y[7][14] x[14] x[22] </args>
      <args> y[7][15] x[15] x[23] </args>
      <args> y[7][16] x[16] x[24] </args>
      <args> y[7][17] x[17] x[25] </args>
      <args> y[8][0] x[0] x[9] </args>
      <args> y[8][1] x[1] x[10] </args>
      <args> y[8][2] x[2] x[11] </args>
      <args> y[8][3] x[3] x[12] </args>
      <args> y[8][4] x[4] x[13] </args>
      <args> y[8][5] x[5] x[14] </args>
      <args> y[8][6] x[6] x[15] </args>
      <args> y[8][7] x[7] x[16] </args>
      <args> y[8][8] x[8] x[17] </args>
      <args> y[8][9] x[9] x[18] </args>
      <args> y[8][10] x[10] x[19] </args>
      <args> y[8][11] x[11] x[20] </args>
      <args> y[8][12] x[12] x[21] </args>
      <args> y[8][13] x[13] x[22] </args>
      <args> y[8][14] x[14] x[23] </args>
      <args> y[8][15] x[15] x[24] </args>
      <args> y[8][16] x[16] x[25] </args>
      <args> y[9][0] x[0] x[10] </args>
      <args> y[9][1] x[1] x[11] </args>
      <args> y[9][2] x[2] x[12] </args>
      <args> y[9][3] x[3] x[13] </args>
      <args> y[9][4] x[4] x[14] </args>
      <args> y[9][5] x[5] x[15] </args>
      <args> y[9][6] x[6] x[16] </args>
      <args> y[9][7] x[7] x[17] </args>
      <args> y[9][8] x[8] x[18] </args>
      <args> y[9][9] x[9] x[19] </args>
      <args> y[9][10] x[10] x[20] </args>
      <args> y[9][11] x[11] x[21] </args>
      <args> y[9][12] x[12] x[22] </args>
      <args> y[9][13] x[13] x[23] </args>
      <args> y[9][14] x[14] x[24] </args>
      <args> y[9][15] x[15] x[25] </args>
      <args> y[10][0] x[0] x[11] </args>
      <args> y[10][1] x[1] x[12] </args>
      <args> y[10][2] x[2] x[13] </args>
      <args> y[10][3] x[3] x[14] </args>
      <args> y[10][4] x[4] x[15] </args>
      <args> y[10][5] x[5] x[16] </args>
      <args> y[10][6] x[6] x[17] </args>
      <args> y[10][7] x[7] x[18] </args>
      <args> y[10][8] x[8] x[19] </args>
      <args> y[10][9] x[9] x[20] </args>
      <args> y[10][10] x[10] x[21] </args>
      <args> y[10][11] x[11] x[22] </args>
      <args> y[10][12] x[12] x[23] </args>
      <args> y[10][13] x[13] x[24] </args>
      <args> y[10][14] x[14] x[25] </args>
      <args> y[11][0] x[0] x[12] </args>
      <args> y[11][1] x[1] x[13] </args>
      <args> y[11][2] x[2] x[14] </args>
      <args> y[11][3] x[3] x[15] </args>
      <args> y[11][4] x[4] x[16] </args>
      <args> y[11][5] x[5] x[17] </args>
      <args> y[11][6] x[6] x[18] </args>
      <args> y[11][7] x[7] x[19] </args>
      <args> y[11][8] x[8] x[20] </args>
      <args> y[11][9] x[9] x[21] </args>
      <args> y[11][10] x[10] x[22] </args>
      <args> y[11][11] x[11] x[23] </args>
      <args> y[11][12] x[12] x[24] </args>
      <args> y[11][13] x[13] x[25] </args>
      <args> y[12][0] x[0] x[13] </args>
      <args> y[12][1] x[1] x[14] </args>
      <args> y[12][2] x[2] x[15] </args>
      <args> y[12][3] x[3] x[16] </args>
      <args> y[12][4] x[4] x[17] </args>
      <args> y[12][5] x[5] x[18] </args>
      <args> y[12][6] x[6] x[19] </args>
      <args> y[12][7] x[7] x[20] </args>
      <args> y[12][8] x[8] x[21] </args>
      <args> y[12][9] x[9] x[22] </args>
      <args> y[12][10] x[10] x[23] </args>
      <args> y[12][11] x[11] x[24] </args>
      <args> y[12][12] x[12] x[25] </args>
      <args> y[13][0] x[0] x[14] </args>
      <args> y[13][1] x[1] x[15] </args>
      <args> y[13][2] x[2] x[16] </args>
      <args> y[13][3] x[3] x[17] </args>
      <args> y[13][4] x[4] x[18] </args>
      <args> y[13][5] x[5] x[19] </args>
      <args> y[13][6] x[6] x[20] </args>
      <args> y[13][7] x[7] x[21] </args>
      <args> y[13][8] x[8] x[22] </args>
      <args> y[13][9] x[9] x[23] </args>
      <args> y[13][10] x[10] x[24] </args>
      <args> y[13][11] x[11] x[25] </args>
      <args> y[14][0] x[0] x[15] </args>
      <args> y[14][1] x[1] x[16] </args>
      <args> y[14][2] x[2] x[17] </args>
      <args> y[14][3] x[3] x[18] </args>
      <args> y[14][4] x[4] x[19] </args>
      <args> y[14][5] x[5] x[20] </args>
      <args> y[14][6] x[6] x[21] </args>
      <args> y[14][7] x[7] x[22] </args>
      <args> y[14][8] x[8] x[23] </args>
      <args> y[14][9] x[9] x[24] </args>
      <args> y[14][10] x[10] x[25] </args>
      <args> y[15][0] x[0] x[16] </args>
      <args> y[15][1] x[1] x[17] </args>
      <args> y[15][2] x[2] x[18] </args>
      <args> y[15][3] x[3] x[19] </args>
      <args> y[15][4] x[4] x[20] </args>
      <args> y[15][5] x[5] x[21] </args>
      <args> y[15][6] x[6] x[22] </args>
      <args> y[15][7] x[7] x[23] </args>
      <args> y[15][8] x[8] x[24] </args>
      <args> y[15][9] x[9] x[25] </args>
      <args> y[16][0] x[0] x[17] </args>
      <args> y[16][1] x[1] x[18] </args>
      <args> y[16][2] x[2] x[19] </args>
      <args> y[16][3] x[3] x[20] </args>
      <args> y[16][4] x[4] x[21] </args>
      <args> y[16][5] x[5] x[22] </args>
      <args> y[16][6] x[6] x[23] </args>
      <args> y[16][7] x[7] x[24] </args>
      <args> y[16][8] x[8] x[25] </args>
      <args> y[17][0] x[0] x[18] </args>
      <args> y[17][1] x[1] x[19] </args>
      <args> y[17][2] x[2] x[20] </args>
      <args> y[17][3] x[3] x[21] </args>
      <args> y[17][4] x[4] x[22] </args>
      <args> y[17][5] x[5] x[23] </args>
      <args> y[17][6] x[6] x[24] </args>
      <args> y[17][7] x[7] x[25] </args>
      <args> y[18][0] x[0] x[19] </args>
      <args> y[18][1] x[1] x[20] </args>
      <args> y[18][2] x[2] x[21] </args>
      <args> y[18][3] x[3] x[22] </args>
      <args> y[18][4] x[4] x[23] </args>
      <args> y[18][5] x[5] x[24] </args>
      <args> y[18][6] x[6] x[25] </args>
      <args> y[19][0] x[0] x[20] </args>
      <args> y[19][1] x[1] x[21] </args>
      <args> y[19][2] x[2] x[22] </args>
      <args> y[19][3] x[3] x[23] </args>
      <args> y[19][4] x[4] x[24] </args>
      <args> y[19][5] x[5] x[25] </args>
      <args> y[20][0] x[0] x[21] </args>
      <args> y[20][1] x[1] x[22] </args>
      <args> y[20][2] x[2] x[23] </args>
      <args> y[20][3] x[3] x[24] </args>
      <args> y[20][4] x[4] x[25] </args>
      <args> y[21][0] x[0] x[22] </args>
      <args> y[21][1] x[1] x[23] </args>
      <args> y[21][2] x[2] x[24] </args>
      <args> y[21][3] x[3] x[25] </args>
      <args> y[22][0] x[0] x[23] </args>
      <args> y[22][1] x[1] x[24] </args>
      <args> y[22][2] x[2] x[25] </args>
      <args> y[23][0] x[0] x[24] </args>
      <args> y[23][1] x[1] x[25] </args>
      <args> y[24][0] x[0] x[25] </args>
    </group>
    <sum>
      <list> y[0][] </list>
      <condition> (eq,c[0]) </condition>
    </sum>
    <sum>
      <list> y[1][0..23] </list>
      <condition> (eq,c[1]) </condition>
    </sum>
    <sum>
      <list> y[2][0..22] </list>
      <condition> (eq,c[2]) </condition>
    </sum>
    <sum>
      <list> y[3][0..21] </list>
      <condition> (eq,c[3]) </condition>
    </sum>
    <sum>
      <list> y[4][0..20] </list>
      <condition> (eq,c[4]) </condition>
    </sum>
    <sum>
      <list> y[5][0..19] </list>
      <condition> (eq,c[5]) </condition>
    </sum>
    <sum>
      <list> y[6][0..18] </list>
      <condition> (eq,c[6]) </condition>
    </sum>
    <sum>
      <list> y[7][0..17] </list>
      <condition> (eq,c[7]) </condition>
    </sum>
    <sum>
      <list> y[8][0..16] </list>
      <condition> (eq,c[8]) </condition>
    </sum>
    <sum>
      <list> y[9][0..15] </list>
      <condition> (eq,c[9]) </condition>
    </sum>
    <sum>
      <list> y[10][0..14] </list>
      <condition> (eq,c[10]) </condition>
    </sum>
    <sum>
      <list> y[11][0..13] </list>
      <condition> (eq,c[11]) </condition>
    </sum>
    <sum>
      <list> y[12][0..12] </list>
      <condition> (eq,c[12]) </condition>
    </sum>
    <sum>
      <list> y[13][0..11] </list>
      <condition> (eq,c[13]) </condition>
    </sum>
    <sum>
      <list> y[14][0..10] </list>
      <condition> (eq,c[14]) </condition>
    </sum>
    <sum>
      <list> y[15][0..9] </list>
      <condition> (eq,c[15]) </condition>
    </sum>
    <sum>
      <list> y[16][0..8] </list>
      <condition> (eq,c[16]) </condition>
    </sum>
    <sum>
      <list> y[17][0..7] </list>
      <condition> (eq,c[17]) </condition>
    </sum>
    <sum>
      <list> y[18][0..6] </list>
      <condition> (eq,c[18]) </condition>
    </sum>
    <sum>
      <list> y[19][0..5] </list>
      <condition> (eq,c[19]) </condition>
    </sum>
    <sum>
      <list> y[20][0..4] </list>
      <condition> (eq,c[20]) </condition>
    </sum>
    <sum>
      <list> y[21][0..3] </list>
      <condition> (eq,c[21]) </condition>
    </sum>
    <sum>
      <list> y[22][0..2] </list>
      <condition> (eq,c[22]) </condition>
    </sum>
    <sum>
      <list> y[23][0] y[23][1] </list>
      <condition> (eq,c[23]) </condition>
    </sum>
    <sum>
      <list> y[24][0] </list>
      <condition> (eq,c[24]) </condition>
    </sum>
    <group>
      <intension> eq(%0,mul(%1,%2)) </intension>
      <args> s[0] c[0] c[0] </args>
      <args> s[1] c[1] c[1] </args>
      <args> s[2] c[2] c[2] </args>
      <args> s[3] c[3] c[3] </args>
      <args> s[4] c[4] c[4] </args>
      <args> s[5] c[5] c[5] </args>
      <args> s[6] c[6] c[6] </args>
      <args> s[7] c[7] c[7] </args>
      <args> s[8] c[8] c[8] </args>
      <args> s[9] c[9] c[9] </args>
      <args> s[10] c[10] c[10] </args>
      <args> s[11] c[11] c[11] </args>
      <args> s[12] c[12] c[12] </args>
      <args> s[13] c[13] c[13] </args>
      <args> s[14] c[14] c[14] </args>
      <args> s[15] c[15] c[15] </args>
      <args> s[16] c[16] c[16] </args>
      <args> s[17] c[17] c[17] </args>
      <args> s[18] c[18] c[18] </args>
      <args> s[19] c[19] c[19] </args>
      <args> s[20] c[20] c[20] </args>
      <args> s[21] c[21] c[21] </args>
      <args> s[22] c[22] c[22] </args>
      <args> s[23] c[23] c[23] </args>
      <args> s[24] c[24] c[24] </args>
    </group>
  </constraints>
  <objectives>
    <minimize type="sum"> s[] </minimize>
  </objectives>
</instance>
